SPARKNaCl/why3-z3/sparknacl-aes.adb_637_55_range_check_1.smt2
;; produced by z3_gnatprove.drv ;;
(set-info :smt-lib-version 2.5)
(set-info :source |VC generated by SPARK 2014|)
(set-info :category industrial)
(set-info :status unknown)
;;; generated by SMT-LIB2 driver
;;; SMT-LIB2 driver: bit-vectors, common part
;;; SMT-LIB2: integer arithmetic
(define-fun __cdiv ((x Int) (y Int)) Int (ite (>= x 0) (div x y) (- (div (- x) y))))
(define-fun __cmod ((x Int) (y Int)) Int (ite (>= x 0) (mod x y) (- (mod (- x) y))))
(declare-datatypes ()
  ((int__ref (int__refqtmk (int__content Int)))))

(declare-datatypes ()
  ((t__ref (t__refqtmk (t__content (_ BitVec 32))))))

(declare-sort u32 0)

;; "to_rep"
(declare-fun to_rep (u32) (_ BitVec 32))

;; "of_rep"
(declare-fun of_rep ((_ BitVec 32)) u32)

;; "inversion_axiom"
(assert
  (forall ((x u32)) (! (= (of_rep (to_rep x)) x) :pattern ((to_rep x)) )))

;; "range_axiom"
(assert true)

;; "coerce_axiom"
(assert
  (forall ((x (_ BitVec 32)))
    (! (= (to_rep (of_rep x)) x) :pattern ((to_rep (of_rep x))) )))

(declare-sort map1 0)

(declare-datatypes ()
  ((map__ref (map__refqtmk (map__content map1)))))

;; "has_bounds"
(declare-fun has_bounds (map1
  Int
  Int) Bool)

;; "get"
(declare-fun get (map1
  Int) u32)

;; "slide"
(declare-fun slide (map1
  Int
  Int) map1)

;; "slide_eq"
(assert
  (forall ((a map1) (first Int))
    (! (= (slide a first first) a) :pattern ((slide a first first)) )))

;; "slide_def"
(assert
  (forall ((a map1) (old_first Int) (new_first Int))
    (! (and
         (forall ((i Int))
           (! (= (get (slide a old_first new_first) i) (get
                                                         a
                                                         (- i (- new_first old_first)))) :pattern (
           (get
             (slide a old_first new_first)
             i)) ))
         (forall ((new_last Int))
           (! (=>
                (has_bounds a old_first (- new_last (- new_first old_first)))
                (has_bounds (slide a old_first new_first) new_first new_last)) :pattern (
           (has_bounds
             (slide a old_first new_first)
             new_first
             new_last)) ))) :pattern ((slide a old_first new_first)) )))

;; "slice"
(declare-fun slice (map1
  Int
  Int) map1)

;; "slice_eq"
(assert
  (forall ((a map1) (f Int) (l Int))
    (! (=> (has_bounds a f l) (= (slice a f l) a)) :pattern ((slice a f l)
    (has_bounds a f l)) )))

;; "slice_slice"
(assert
  (forall ((a map1) (f1 Int) (l1 Int) (f2 Int) (l2 Int))
    (! (=>
         (and (<= f1 f2) (<= l2 l1))
         (= (slice (slice a f1 l1) f2 l2) (slice a f2 l2))) :pattern (
    (slice
      (slice a f1 l1)
      f2
      l2)) )))

;; "slice_def"
(assert
  (forall ((a map1) (f Int) (l Int))
    (! (forall ((i Int))
         (! (=> (and (<= f i) (<= i l)) (= (get (slice a f l) i) (get a i))) :pattern (
         (get
           (slice a f l)
           i)) :pattern ((get a i)) )) :pattern ((slice a f l)) )))

;; "slice_has_bounds"
(assert
  (forall ((a map1) (f Int) (l Int))
    (! (has_bounds (slice a f l) f l) :pattern ((has_bounds
                                                  (slice a f l)
                                                  f
                                                  l)) )))

(declare-datatypes ()
  ((us_split_fields
   (us_split_fieldsqtmk (rec__ada___sparknacl__aes__aes256_key__f map1)))))

(declare-datatypes ()
  ((us_rep (us_repqtmk (us_split_fields1 us_split_fields)))))

(declare-datatypes ()
  ((u32__init_wrapper
   (u32__init_wrapperqtmk (rec__value u32)(us_attr__init Bool)))))

(declare-sort map2 0)

;; "has_bounds"
(declare-fun has_bounds1 (map2
  Int
  Int) Bool)

;; "get"
(declare-fun get1 (map2
  Int) u32__init_wrapper)

;; "convert"
(declare-fun convert (map1) map2)

;; "convert__def"
(assert
  (forall ((a map1))
    (let ((b (convert a)))
      (forall ((temp___170 Int))
        (and
          (= (us_attr__init
               (u32__init_wrapperqtmk
                 (of_rep (to_rep (get a temp___170)))
                 true)) (us_attr__init (get1 b temp___170)))
          (= (to_rep
               (rec__value
                 (u32__init_wrapperqtmk
                   (of_rep (to_rep (get a temp___170)))
                   true))) (to_rep (rec__value (get1 b temp___170)))))))))

;; "dynamic_invariant"
(define-fun dynamic_invariant ((temp___expr_376 us_rep) (temp___is_init_372 Bool) (temp___skip_constant_373 Bool) (temp___do_toplevel_374 Bool) (temp___do_typ_inv_375 Bool)) Bool
  (has_bounds
    (rec__ada___sparknacl__aes__aes256_key__f
      (us_split_fields1 temp___expr_376))
    0
    7))

(declare-sort map3 0)

(declare-datatypes ()
  ((map__ref1 (map__refqtmk1 (map__content1 map3)))))

;; "has_bounds"
(declare-fun has_bounds2 (map3
  Int
  Int) Bool)

;; "get"
(declare-fun get2 (map3
  Int) map2)

;; "set"
(declare-fun set (map3
  Int
  map2) map3)

;; "set_eq"
(assert
  (forall ((a map3) (i Int) (v map2))
    (! (= (get2 (set a i v) i) v) :pattern ((set a i v)) )))

;; "set_neq"
(assert
  (forall ((a map3) (i Int) (v map2))
    (! (forall ((j Int))
         (! (=> (not (= i j)) (= (get2 (set a i v) j) (get2 a j))) :pattern (
         (get2
           a
           j)) :pattern ((get2 (set a i v) j)) )) :pattern ((set a i v)) )))

;; "set_has_bounds"
(assert
  (forall ((a map3) (i Int) (f Int) (l Int) (v map2))
    (! (=>
         (and (<= f i) (<= i l))
         (=> (has_bounds2 a f l) (has_bounds2 (set a i v) f l))) :pattern (
    (has_bounds2
      (set a i v)
      f
      l)) )))

;; "in_range"
(define-fun in_range ((x Int)) Bool
  (and (<= 0 x) (<= x 14)))

;; "dynamic_invariant_r"
(define-fun dynamic_invariant_r ((temp___expr_483 map3) (temp___is_init_479 Bool) (temp___skip_constant_480 Bool) (temp___do_toplevel_481 Bool) (temp___do_typ_inv_482 Bool)) Bool
  (and
    (has_bounds2 temp___expr_483 0 14)
    (forall ((temp___484 Int))
      (=>
        (and (<= 0 temp___484) (<= temp___484 14))
        (has_bounds1 (get2 temp___expr_483 temp___484) 0 3)))))

(declare-const key us_rep)

(declare-sort tinteger_32B 0)

;; "tinteger_32B'int"
(declare-fun tinteger_32Bqtint (tinteger_32B) Int)

;; "tinteger_32B'axiom"
(assert
  (forall ((i tinteger_32B))
    (and
      (<= (- 2147483648) (tinteger_32Bqtint i))
      (<= (tinteger_32Bqtint i) 2147483647))))

;; "in_range"
(define-fun in_range1 ((x Int)) Bool
  (and (<= (- 2147483648) x) (<= x 2147483647)))

;; "to_rep"
(define-fun to_rep1 ((x tinteger_32B)) Int
  (tinteger_32Bqtint x))

;; "of_rep"
(declare-fun of_rep1 (Int) tinteger_32B)

;; "inversion_axiom"
(assert
  (forall ((x tinteger_32B))
    (! (= (of_rep1 (to_rep1 x)) x) :pattern ((to_rep1 x)) )))

;; "range_axiom"
(assert
  (forall ((x tinteger_32B))
    (! (in_range1 (to_rep1 x)) :pattern ((to_rep1 x)) )))

;; "coerce_axiom"
(assert
  (forall ((x Int))
    (! (=> (in_range1 x) (= (to_rep1 (of_rep1 x)) x)) :pattern ((to_rep1
                                                                  (of_rep1 x))) )))

(declare-datatypes ()
  ((t (tqtmk (rec__first tinteger_32B)(rec__last tinteger_32B)))))

;; "mk"
(declare-fun mk (Int
  Int) t)

;; "mk_def"
(assert
  (forall ((f Int) (l Int))
    (! (=>
         (in_range1 f)
         (=>
           (in_range1 l)
           (and
             (= (to_rep1 (rec__first (mk f l))) f)
             (= (to_rep1 (rec__last (mk f l))) l)))) :pattern ((mk f l)) )))

(declare-datatypes ()
  ((us_t (us_tqtmk (elts map1)(rt t)))))

;; "of_array"
(define-fun of_array ((a map1) (f Int) (l Int)) us_t
  (us_tqtmk a (mk f l)))

(declare-const round_keys map3)

;; "round_keys'unused"
(define-fun round_keysqtunused () map__ref1
  (map__refqtmk1 round_keys))

;; "Assume"
(assert (dynamic_invariant key true false true true))

;; "Assume"
(assert (dynamic_invariant_r round_keys false false true true))

(declare-const key_index Int)

;; "key_index'unused"
(define-fun key_indexqtunused () int__ref
  (int__refqtmk key_index))

;; "H"
(assert (= key_index 0))

;; "Assume"
(assert (in_range key_index))

(declare-const rcon (_ BitVec 32))

;; "rcon'unused"
(define-fun rconqtunused () t__ref
  (t__refqtmk rcon))

;; "H"
(assert (= rcon #x01000000))

;; "Assume"
(assert true)

;; "o"
(define-fun o () us_split_fields
  (us_split_fields1 key))

;; "__split_fields'result'unused"
(define-fun us_split_fieldsqtresultqtunused () us_split_fields
  o)

;; "temp___1204"
(define-fun temp___1204 () map1
  (rec__ada___sparknacl__aes__aes256_key__f o))

;; "rec__ada___sparknacl__aes__aes256_key__f'result'unused"
(define-fun rec__ada___sparknacl__aes__aes256_key__fqtresultqtunused 
  () map1
  temp___1204)

;; "Assert"
(assert (=> (<= 0 3) (and (and (<= 0 0) (<= 0 7)) (and (<= 0 3) (<= 3 7)))))

;; "o"
(define-fun o1 () map1
  (slice temp___1204 0 3))

;; "slice'result'unused"
(define-fun sliceqtresultqtunused () map1
  o1)

;; "temp___1207"
(define-fun temp___1207 () us_t
  (of_array o1 0 3))

;; "of_array'result'unused"
(define-fun of_arrayqtresultqtunused () us_t
  temp___1207)

;; "o"
(define-fun o2 () Int
  0)

;; "first'result'unused"
(define-fun firstqtresultqtunused () Int
  o2)

;; "o"
(define-fun o3 () map1
  o1)

;; "to_array'result'unused"
(define-fun to_arrayqtresultqtunused () map1
  o3)

;; "temp___1208"
(define-fun temp___1208 () map1
  (slide o3 o2 0))

;; "slide'result'unused"
(define-fun slideqtresultqtunused () map1
  temp___1208)

;; "Assert"
(assert (ite (<= 0 3) (<= 0 3) (< 3 0)))

(declare-const a map1)

;; "a'unused"
(define-fun aqtunused () map__ref
  (map__refqtmk a))

;; "H"
(assert (= a temp___1208))

;; "Assume"
(assert (has_bounds a 0 3))

;; "o"
(define-fun o4 () us_split_fields
  (us_split_fields1 key))

;; "__split_fields'result'unused"
(define-fun us_split_fieldsqtresultqtunused1 () us_split_fields
  o4)

;; "temp___1210"
(define-fun temp___1210 () map1
  (rec__ada___sparknacl__aes__aes256_key__f o4))

;; "rec__ada___sparknacl__aes__aes256_key__f'result'unused"
(define-fun rec__ada___sparknacl__aes__aes256_key__fqtresultqtunused1 
  () map1
  temp___1210)

;; "Assert"
(assert (=> (<= 4 7) (and (and (<= 0 4) (<= 4 7)) (and (<= 0 7) (<= 7 7)))))

;; "o"
(define-fun o5 () map1
  (slice temp___1210 4 7))

;; "slice'result'unused"
(define-fun sliceqtresultqtunused1 () map1
  o5)

;; "temp___1213"
(define-fun temp___1213 () us_t
  (of_array o5 4 7))

;; "of_array'result'unused"
(define-fun of_arrayqtresultqtunused1 () us_t
  temp___1213)

;; "o"
(define-fun o6 () Int
  4)

;; "first'result'unused"
(define-fun firstqtresultqtunused1 () Int
  o6)

;; "o"
(define-fun o7 () map1
  o5)

;; "to_array'result'unused"
(define-fun to_arrayqtresultqtunused1 () map1
  o7)

;; "temp___1214"
(define-fun temp___1214 () map1
  (slide o7 o6 0))

;; "slide'result'unused"
(define-fun slideqtresultqtunused1 () map1
  temp___1214)

;; "Assert"
(assert (ite (<= 4 7) (and (<= 0 3) (= (- 7 4) (- 3 0))) (< 3 0)))

(declare-const b map1)

;; "b'unused"
(define-fun bqtunused () map__ref
  (map__refqtmk b))

;; "H"
(assert (= b temp___1214))

;; "Assume"
(assert (has_bounds b 0 3))

;; "map__content'result'unused"
(define-fun map__contentqtresultqtunused () map1
  a)

;; "o"
(define-fun o8 () map2
  (convert a))

;; "convert'result'unused"
(define-fun convertqtresultqtunused () map2
  o8)

;; "int__content'result'unused"
(define-fun int__contentqtresultqtunused () Int
  key_index)

;; "map__content'result'unused"
(define-fun map__contentqtresultqtunused1 () map3
  round_keys)

;; "o"
(define-fun o9 () map3
  (set round_keys key_index o8))

;; "set'result'unused"
(define-fun setqtresultqtunused () map3
  o9)

(declare-const round_keys1 map3)

;; "round_keys'unused"
(define-fun round_keysqtunused1 () map__ref1
  (map__refqtmk1 round_keys1))

;; "H"
(assert (= round_keys1 o9))

;; "int__content'result'unused"
(define-fun int__contentqtresultqtunused1 () Int
  key_index)

;; "Ensures"
(assert (not (= key_index 2147483647)))

;; "check_not_last'result'unused"
(define-fun check_not_lastqtresultqtunused () Int
  key_index)

;; "o"
(define-fun o10 () Int
  (+ key_index 1))

;; "infix +'result'unused"
(define-fun infix_plqtresultqtunused () Int
  o10)

;; Goal "def'vc"
;; File "sparknacl-aes.ads", line 55, characters 0-0
(assert
  (not (<= 0 o10)))

(check-sat)
